c FILE: i080-335

c SOURCE: From steinlib

c DESCRIPTION: Steinlib instance with 80 nodes and 160 edges.

p edge 80 160
e 1 6
e 1 15
e 1 31
e 1 58
e 2 45
e 2 57
e 2 76
e 3 40
e 3 46
e 3 77
e 4 8
e 4 12
e 4 61
e 4 77
e 5 17
e 5 34
e 5 49
e 6 17
e 6 21
e 6 49
e 7 14
e 7 21
e 7 27
e 7 42
e 7 69
e 8 10
e 8 30
e 8 38
e 8 43
e 8 44
e 8 46
e 9 33
e 9 36
e 9 48
e 10 27
e 10 36
e 10 47
e 10 50
e 10 60
e 11 15
e 11 29
e 11 31
e 11 33
e 11 64
e 12 34
e 12 63
e 13 21
e 13 71
e 14 35
e 14 59
e 15 18
e 15 23
e 15 34
e 15 49
e 15 69
e 16 33
e 16 44
e 16 62
e 17 55
e 17 69
e 18 26
e 18 29
e 19 30
e 19 31
e 19 36
e 19 39
e 19 58
e 19 71
e 20 46
e 20 49
e 20 59
e 20 61
e 21 26
e 21 52
e 21 59
e 22 34
e 23 36
e 24 26
e 24 31
e 24 40
e 25 35
e 25 48
e 25 64
e 26 29
e 26 55
e 26 70
e 26 76
e 27 58
e 28 40
e 28 41
e 28 57
e 28 68
e 28 77
e 29 41
e 29 46
e 29 71
e 30 66
e 30 72
e 30 73
e 30 79
e 31 35
e 31 38
e 31 45
e 31 55
e 31 68
e 31 69
e 31 70
e 32 50
e 33 35
e 33 55
e 33 63
e 33 67
e 33 77
e 34 50
e 34 57
e 34 77
e 34 78
e 35 59
e 36 75
e 36 77
e 37 39
e 37 71
e 41 47
e 42 60
e 44 45
e 44 53
e 44 80
e 45 67
e 46 80
e 48 54
e 48 61
e 49 64
e 50 52
e 51 55
e 51 57
e 53 55
e 53 58
e 53 73
e 54 63
e 55 74
e 56 60
e 56 63
e 56 72
e 56 77
e 57 75
e 57 77
e 57 79
e 59 75
e 61 75
e 62 68
e 62 71
e 64 72
e 65 68
e 65 76
e 66 79
e 67 71
e 72 75
e 74 78
e 74 79
e 75 77
